data;


param FN:= 1;
param D:= 100;
param U_Original:=
         1         1        8.337246e-02
         2         1        3.725364e-01
         3         1        2.997011e-01
         4         1       -3.341372e-01
         5         1        2.012542e-01
         6         1       -1.331780e+00
         7         1       -3.592487e-01
         8         1       -4.803194e-01
         9         1       -6.169404e-01
        10         1        1.846744e-01
        11         1       -6.411385e-01
        12         1       -9.323513e-01
        13         1       -3.394250e-01
        14         1        7.330506e-02
        15         1        1.164606e+00
        16         1        7.603497e-01
        17         1        3.057603e+00
        18         1       -1.002672e-01
        19         1       -1.356852e+00
        20         1        1.073638e+00
        21         1       -4.715710e-01
        22         1        3.018057e-01
        23         1       -3.910328e-01
        24         1        1.781470e+00
        25         1       -5.469874e-01
        26         1       -1.708036e+00
        27         1       -9.422992e-01
        28         1       -7.458297e-01
        29         1        4.462380e-01
        30         1       -2.370200e-01
        31         1        7.621943e-01
        32         1        1.289377e+00
        33         1       -1.317780e-01
        34         1        1.011151e+00
        35         1        5.298323e-01
        36         1       -2.424177e+00
        37         1       -1.584543e-01
        38         1        2.248428e-01
        39         1       -1.999123e+00
        40         1        5.685478e-01
        41         1       -9.017874e-02
        42         1       -3.547644e-01
        43         1       -6.540305e-01
        44         1        9.751215e-01
        45         1        1.034829e+00
        46         1        2.728903e+00
        47         1       -8.426646e-01
        48         1        4.094590e-01
        49         1       -1.274049e-01
        50         1        4.005104e-01
        51         1       -1.109904e-01
        52         1       -3.820690e-02
        53         1        3.709564e-01
        54         1        1.199127e+00
        55         1        4.057894e-01
        56         1        4.701512e-01
        57         1        9.346892e-01
        58         1       -1.480222e+00
        59         1        4.444215e-01
        60         1        2.312981e-01
        61         1        5.430750e-01
        62         1        7.779867e-01
        63         1       -4.164590e-01
        64         1       -1.118362e+00
        65         1       -5.709089e-01
        66         1        1.339513e+00
        67         1        1.131129e+00
        68         1       -1.241488e+00
        69         1       -1.330799e+00
        70         1        1.055965e+00
        71         1       -1.241411e-01
        72         1        2.817216e-01
        73         1        3.156745e-01
        74         1       -3.964529e-01
        75         1        7.252366e-01
        76         1        8.196129e-01
        77         1       -2.497524e+00
        78         1        2.048588e+00
        79         1       -3.931528e-01
        80         1       -4.646552e-01
        81         1        2.269904e+00
        82         1        2.218190e+00
        83         1        1.492371e+00
        84         1       -2.552958e-01
        85         1        8.624588e-02
        86         1       -4.020202e-01
        87         1        7.198967e-01
        88         1        1.457527e+00
        89         1        6.723372e-02
        90         1        1.133210e+00
        91         1       -4.715250e-01
        92         1       -5.464769e-01
        93         1        1.168669e+00
        94         1       -5.438771e-01
        95         1        8.107971e-01
        96         1       -1.212080e+00
        97         1        1.032374e-01
        98         1        1.028767e+00
        99         1       -2.505032e+00
       100         1       -1.206214e+00
         1         2       -1.233502e+00
         2         2        1.905735e-01
         3         2        9.716446e-03
         4         2       -1.422876e+00
         5         2       -5.999801e-01
         6         2       -6.277419e-01
         7         2        1.853139e+00
         8         2       -3.064424e-01
         9         2       -7.647719e-01
        10         2        1.693358e-03
        11         2        4.621515e-01
        12         2       -4.104238e-01
        13         2        2.347931e-01
        14         2       -1.252255e-02
        15         2       -7.005198e-01
        16         2        4.644969e-01
        17         2        1.154833e-01
        18         2        1.223357e-01
        19         2        6.910404e-01
        20         2        1.733682e-01
        21         2       -1.375110e-01
        22         2        1.204690e-01
        23         2        1.659676e+00
        24         2       -8.718507e-01
        25         2        1.088563e+00
        26         2       -2.235473e+00
        27         2       -4.128645e-01
        28         2       -6.340589e-01
        29         2       -4.697032e-01
        30         2        7.791864e-01
        31         2       -1.538708e+00
        32         2       -2.634931e+00
        33         2       -2.104579e-01
        34         2       -7.497370e-01
        35         2       -5.026942e-01
        36         2       -4.708049e-01
        37         2       -6.432805e-01
        38         2        2.378832e+00
        39         2       -2.533218e-01
        40         2       -3.667070e-01
        41         2        2.030262e-01
        42         2        1.136829e+00
        43         2       -1.331848e+00
        44         2       -1.528098e+00
        45         2       -8.259547e-01
        46         2       -1.370565e+00
        47         2        8.006729e-01
        48         2       -9.915129e-01
        49         2        4.010438e-01
        50         2       -1.555421e+00
        51         2        6.305482e-01
        52         2        8.567803e-01
        53         2       -1.106565e+00
        54         2        8.583720e-01
        55         2       -1.457490e+00
        56         2        3.010633e-01
        57         2       -8.092601e-02
        58         2       -1.946140e+00
        59         2        7.356393e-01
        60         2       -6.213858e-01
        61         2        2.039499e+00
        62         2       -1.161503e+00
        63         2       -2.037545e-01
        64         2       -1.223434e+00
        65         2        1.432599e+00
        66         2       -6.248893e-02
        67         2        1.006203e+00
        68         2        7.427409e-01
        69         2       -1.305842e+00
        70         2        1.373001e+00
        71         2        1.661988e+00
        72         2        8.058413e-01
        73         2        2.681553e-01
        74         2       -1.275179e+00
        75         2        1.683626e+00
        76         2        1.047040e-01
        77         2        5.840160e-01
        78         2       -9.693717e-01
        79         2       -1.686046e+00
        80         2       -8.791085e-02
        81         2       -1.524062e+00
        82         2       -4.558682e-01
        83         2       -7.931995e-01
        84         2        1.465018e+00
        85         2       -7.146862e-01
        86         2        1.572973e+00
        87         2       -1.979820e-01
        88         2        8.303234e-01
        89         2       -1.381140e+00
        90         2        5.111062e-01
        91         2        1.130700e+00
        92         2       -6.415561e-01
        93         2       -3.080541e-01
        94         2       -3.656289e-03
        95         2        2.184053e-01
        96         2       -4.877156e-01
        97         2       -6.029603e-02
        98         2       -4.824788e-01
        99         2        1.103989e+00
       100         2        1.169466e+00
         1         3        1.766785e-01
         2         3        1.911133e+00
         3         3        6.887235e-01
         4         3       -2.530132e-01
         5         3        1.891598e+00
         6         3       -1.814847e+00
         7         3       -4.560269e-01
         8         3        8.403070e-01
         9         3        1.751906e+00
        10         3       -1.020790e+00
        11         3        7.632638e-01
        12         3        1.323964e+00
        13         3        9.100312e-01
        14         3       -1.559335e+00
        15         3       -1.546888e+00
        16         3        4.835014e-01
        17         3       -1.562387e-02
        18         3        1.822742e+00
        19         3       -1.126755e+00
        20         3       -6.525792e-01
        21         3       -1.512238e-01
        22         3        7.023604e-02
        23         3       -3.139276e-01
        24         3       -9.898107e-02
        25         3       -4.848588e-01
        26         3       -4.003165e-01
        27         3       -1.022929e+00
        28         3       -3.135477e-01
        29         3       -1.357123e+00
        30         3        1.807767e+00
        31         3       -1.036774e+00
        32         3        3.295515e-01
        33         3        1.144695e+00
        34         3       -8.073475e-01
        35         3        6.267215e-01
        36         3        1.121063e+00
        37         3        4.584175e-01
        38         3       -2.830374e-01
        39         3        7.893994e-01
        40         3       -1.562811e+00
        41         3        6.171584e-01
        42         3       -5.857294e-01
        43         3        6.593312e-01
        44         3        2.690835e-01
        45         3        6.273454e-01
        46         3       -1.786257e-01
        47         3        7.513369e-01
        48         3       -2.417948e+00
        49         3        1.160626e+00
        50         3       -4.164194e-01
        51         3       -1.076137e-01
        52         3        4.984736e-01
        53         3        2.671523e-01
        54         3        4.537193e-01
        55         3        2.482658e-01
        56         3       -2.445745e-01
        57         3       -2.257005e+00
        58         3        5.048618e-01
        59         3       -1.298874e-01
        60         3       -2.117314e+00
        61         3       -1.534012e+00
        62         3        1.768353e+00
        63         3        3.490994e-01
        64         3        4.666372e-01
        65         3        1.172438e+00
        66         3        6.551295e-01
        67         3       -8.791934e-01
        68         3       -1.222594e-01
        69         3        3.766177e-01
        70         3        6.972400e-01
        71         3        4.889582e-01
        72         3       -1.937190e+00
        73         3        1.014512e+00
        74         3       -4.315693e-02
        75         3       -3.549501e+00
        76         3        2.715297e-01
        77         3        3.111058e-02
        78         3       -1.518096e+00
        79         3       -4.135366e-01
        80         3        2.378593e-02
        81         3       -3.895486e-01
        82         3        9.409176e-01
        83         3        4.014804e-01
        84         3        7.789804e-02
        85         3       -8.602425e-01
        86         3       -3.103292e-01
        87         3       -5.199476e-01
        88         3       -2.339346e-01
        89         3       -3.000566e+00
        90         3       -1.088629e-01
        91         3       -8.095475e-01
        92         3       -6.407112e-01
        93         3        4.856987e-01
        94         3        9.257400e-01
        95         3        6.661989e-01
        96         3       -1.017285e+00
        97         3        8.013841e-01
        98         3        5.586393e-01
        99         3       -3.208506e-01
       100         3        2.427307e-01
         1         4       -1.003457e+00
         2         4        1.091643e+00
         3         4        1.964338e+00
         4         4        1.006931e-01
         5         4       -1.247944e+00
         6         4       -9.536095e-01
         7         4        2.726100e-01
         8         4        8.095620e-01
         9         4       -4.603593e-01
        10         4       -1.049844e+00
        11         4        6.127002e-01
        12         4        1.585955e-01
        13         4       -2.164943e-01
        14         4       -2.532911e-02
        15         4       -5.044425e-02
        16         4        1.841210e+00
        17         4       -2.660836e+00
        18         4        2.134654e+00
        19         4        1.154851e+00
        20         4        2.345261e-01
        21         4       -4.763107e-01
        22         4        2.435037e+00
        23         4       -3.214791e-01
        24         4       -1.649658e-01
        25         4        9.668827e-01
        26         4       -6.083295e-01
        27         4        5.160820e-01
        28         4        6.178350e-01
        29         4       -6.708834e-01
        30         4        2.886719e-01
        31         4       -1.892182e+00
        32         4       -2.578331e+00
        33         4        2.443114e-01
        34         4       -9.635360e-01
        35         4       -1.807035e+00
        36         4       -5.932872e-01
        37         4       -8.470529e-01
        38         4        7.102261e-01
        39         4        1.196540e+00
        40         4       -1.694222e+00
        41         4       -8.232745e-01
        42         4       -4.381671e-01
        43         4       -2.195933e-01
        44         4        9.630382e-01
        45         4       -4.103799e-02
        46         4        3.279961e-01
        47         4       -1.078632e+00
        48         4        1.163533e+00
        49         4        1.976761e+00
        50         4        1.188139e+00
        51         4        7.317967e-01
        52         4       -5.106163e-01
        53         4        9.862421e-01
        54         4        1.872448e+00
        55         4       -2.811744e-01
        56         4        6.649805e-01
        57         4        1.050421e+00
        58         4        6.375470e-01
        59         4        9.273210e-01
        60         4        2.149046e-01
        61         4       -9.945188e-01
        62         4       -1.302416e+00
        63         4       -2.062603e+00
        64         4        2.534097e-01
        65         4       -6.510445e-02
        66         4        1.074125e+00
        67         4       -5.151008e-02
        68         4       -1.537230e-01
        69         4       -6.791572e-01
        70         4       -1.792199e+00
        71         4       -9.307497e-02
        72         4        1.607290e+00
        73         4        9.780084e-01
        74         4        7.915555e-01
        75         4        5.395187e-01
        76         4       -7.786142e-01
        77         4        4.177830e-01
        78         4        2.789568e-01
        79         4       -1.822156e+00
        80         4       -5.213650e-01
        81         4        1.672789e-01
        82         4       -1.597291e+00
        83         4       -1.553138e+00
        84         4        1.661526e+00
        85         4       -2.186138e+00
        86         4        2.758237e-01
        87         4        8.847907e-01
        88         4        1.197820e+00
        89         4        2.301900e-01
        90         4        7.649667e-01
        91         4        2.730252e-01
        92         4       -6.457241e-01
        93         4       -1.096111e+00
        94         4        1.024412e+00
        95         4        1.220115e+00
        96         4        7.541306e-02
        97         4       -4.714864e-02
        98         4        1.560787e+00
        99         4       -2.232899e-01
       100         4       -1.355876e+00
         1         5        1.055480e+00
         2         5       -4.701733e-01
         3         5        1.808980e+00
         4         5        1.120701e+00
         5         5        1.054709e+00
         6         5        1.185821e+00
         7         5        4.100545e-01
         8         5        7.675859e-01
         9         5       -5.241149e-01
        10         5        1.518494e-01
        11         5        7.890540e-01
        12         5       -2.220226e-01
        13         5        1.258568e+00
        14         5       -9.486330e-01
        15         5        4.216571e-01
        16         5       -1.826783e+00
        17         5       -2.361589e+00
        18         5       -2.018577e+00
        19         5       -2.514625e-01
        20         5       -3.393615e-01
        21         5        2.418905e-02
        22         5       -2.621451e-01
        23         5        1.286571e+00
        24         5       -1.348396e+00
        25         5        1.321044e+00
        26         5        1.333394e+00
        27         5       -6.513528e-01
        28         5        1.149588e+00
        29         5       -2.973323e-01
        30         5       -4.840990e-01
        31         5        1.020535e+00
        32         5        8.715252e-02
        33         5        2.705232e-02
        34         5       -2.189972e-01
        35         5        1.120786e+00
        36         5        7.591029e-01
        37         5        1.962247e+00
        38         5       -8.154876e-01
        39         5       -1.296916e+00
        40         5       -2.052291e+00
        41         5        6.807873e-01
        42         5       -8.816539e-01
        43         5       -6.182690e-03
        44         5        1.337309e+00
        45         5       -3.729542e-01
        46         5        1.549069e+00
        47         5       -6.223679e-01
        48         5        7.333476e-01
        49         5        8.433267e-01
        50         5       -1.415555e+00
        51         5        2.999706e-01
        52         5        8.888621e-01
        53         5        7.707219e-01
        54         5        3.484858e-01
        55         5        2.364550e-01
        56         5       -2.983686e-01
        57         5       -1.785042e+00
        58         5        1.672748e+00
        59         5       -1.306233e+00
        60         5       -1.425208e+00
        61         5        1.407306e+00
        62         5        1.240830e-01
        63         5        1.612701e-01
        64         5        1.441853e+00
        65         5       -3.850703e-01
        66         5       -3.845618e-01
        67         5       -4.101640e-02
        68         5       -8.452019e-01
        69         5       -7.415925e-01
        70         5       -2.456123e-01
        71         5        3.842240e-01
        72         5       -1.132333e+00
        73         5       -1.063213e+00
        74         5       -8.531717e-01
        75         5        4.013636e-01
        76         5       -6.645497e-01
        77         5        3.895172e-01
        78         5        4.977211e-01
        79         5        4.618021e-01
        80         5        7.354395e-01
        81         5       -1.379551e+00
        82         5       -6.841734e-01
        83         5        2.386715e-01
        84         5       -9.628634e-01
        85         5       -9.090413e-01
        86         5        4.849506e-01
        87         5       -3.126797e-01
        88         5        3.152915e-01
        89         5        6.534277e-01
        90         5        2.965622e-01
        91         5       -6.034732e-01
        92         5        6.672409e-01
        93         5       -2.061665e-01
        94         5       -1.206621e-01
        95         5        4.360231e-01
        96         5        1.176272e+00
        97         5        1.908265e+00
        98         5       -1.515482e+00
        99         5        6.960503e-01
       100         5        3.289868e-01
;
param X_Original:=
    1        1.011254e+00
    2        8.802567e-01
    3        1.581874e+00
    4       -1.401388e+00
    5       -1.483747e+00
    6       -5.771624e-01
    7       -3.265840e+00
    8       -8.744576e-01
    9        1.078772e+00
   10       -2.671332e-01
   11       -1.014942e+00
   12        1.525966e-01
   13        1.110232e+00
   14       -4.445325e-01
   15       -3.508192e-01
   16       -4.611128e-01
   17       -2.158240e+00
   18        5.346235e+00
   19        6.694485e-01
   20        1.720977e-01
   21        1.060174e+00
   22        1.171986e+00
   23       -5.526124e-01
   24        4.037679e-01
   25        6.250319e-01
   26        1.505874e-01
   27       -7.279368e-01
   28        9.993610e-01
   29        5.726604e-01
   30       -9.284620e-01
   31       -2.004662e+00
   32        7.653908e-01
   33       -1.552777e-01
   34       -1.265531e+00
   35       -1.340344e+00
   36       -1.986981e+00
   37        8.259103e-01
   38        2.126922e+00
   39       -4.197192e-01
   40        1.556446e-01
   41       -2.274115e+00
   42        5.589132e-01
   43        4.519870e-01
   44       -2.759539e-01
   45       -9.435125e-01
   46       -1.521724e+00
   47        9.304530e-02
   48       -3.164969e+00
   49        4.299557e-01
   50        3.527599e+00
   51       -1.390308e+00
   52        1.731785e-01
   53       -1.912397e-01
   54        4.108505e-02
   55        1.231079e+00
   56       -1.619042e+00
   57       -1.425316e+00
   58        4.155910e-01
   59       -6.398007e-01
   60        7.560508e-01
   61       -3.197787e-01
   62       -2.234236e-01
   63        1.313111e+00
   64       -7.153931e-01
   65        2.221864e-01
   66       -8.529508e-01
   67        4.533104e-01
   68        2.751428e+00
   69       -7.856702e-01
   70        5.131664e-01
   71       -2.415928e+00
   72        4.891091e-01
   73       -6.186418e-01
   74       -2.009184e-01
   75       -7.915806e-01
   76       -7.556536e-01
   77       -6.858539e-01
   78        1.440552e+00
   79       -1.397640e+00
   80        5.264778e-01
   81        5.262621e-01
   82       -1.458492e+00
   83       -1.562040e+00
   84        2.898942e-01
   85        2.232310e-01
   86       -1.030547e+00
   87       -3.774444e-01
   88       -5.046755e+00
   89        5.451507e-01
   90       -7.318435e-01
   91       -5.449797e-01
   92        2.266385e+00
   93        1.997606e-01
   94        8.617783e-01
   95        4.961787e-02
   96        2.391412e+00
   97        2.491223e-02
   98        7.512277e-01
   99       -1.134679e+00
  100        3.027208e-01
;
param outliervec_original :=
    1    1
    2    1
    3    1
    4    1
    5    1
    6    1
    7    0
    8    1
    9    1
   10    1
   11    1
   12    1
   13    1
   14    1
   15    1
   16    1
   17    0
   18    0
   19    1
   20    1
   21    1
   22    1
   23    1
   24    1
   25    1
   26    1
   27    1
   28    1
   29    1
   30    1
   31    0
   32    1
   33    1
   34    1
   35    1
   36    1
   37    1
   38    1
   39    1
   40    1
   41    1
   42    1
   43    1
   44    1
   45    1
   46    1
   47    1
   48    0
   49    1
   50    0
   51    0
   52    1
   53    0
   54    1
   55    0
   56    1
   57    1
   58    1
   59    1
   60    0
   61    1
   62    1
   63    0
   64    1
   65    1
   66    1
   67    1
   68    0
   69    1
   70    1
   71    0
   72    1
   73    1
   74    1
   75    1
   76    1
   77    1
   78    1
   79    1
   80    1
   81    1
   82    1
   83    1
   84    1
   85    1
   86    1
   87    1
   88    0
   89    1
   90    1
   91    0
   92    1
   93    1
   94    1
   95    1
   96    1
   97    1
   98    1
   99    1
  100    1
;
param d:= 57;
param r:=5;
param p:=0.840000;
param M:=1000;
param U:=
         1         1        8.337246e-02
         2         1        3.725364e-01
         3         1        2.012542e-01
         4         1       -3.592487e-01
         5         1        1.846744e-01
         6         1       -6.411385e-01
         7         1        7.330506e-02
         8         1        3.057603e+00
         9         1       -1.002672e-01
        10         1       -1.356852e+00
        11         1       -4.715710e-01
        12         1        3.018057e-01
        13         1        1.781470e+00
        14         1       -7.458297e-01
        15         1        4.462380e-01
        16         1        7.621943e-01
        17         1        1.289377e+00
        18         1       -1.317780e-01
        19         1        1.011151e+00
        20         1        5.298323e-01
        21         1        5.685478e-01
        22         1       -9.017874e-02
        23         1       -3.547644e-01
        24         1        9.751215e-01
        25         1        1.034829e+00
        26         1       -8.426646e-01
        27         1       -1.274049e-01
        28         1        4.005104e-01
        29         1       -1.109904e-01
        30         1        3.709564e-01
        31         1        4.057894e-01
        32         1        4.701512e-01
        33         1        4.444215e-01
        34         1        2.312981e-01
        35         1        7.779867e-01
        36         1       -4.164590e-01
        37         1       -5.709089e-01
        38         1        1.339513e+00
        39         1       -1.241488e+00
        40         1       -1.241411e-01
        41         1        2.817216e-01
        42         1        8.196129e-01
        43         1       -4.646552e-01
        44         1        2.269904e+00
        45         1        2.218190e+00
        46         1        1.492371e+00
        47         1       -2.552958e-01
        48         1        8.624588e-02
        49         1       -4.020202e-01
        50         1        7.198967e-01
        51         1        1.457527e+00
        52         1        6.723372e-02
        53         1       -4.715250e-01
        54         1       -5.438771e-01
        55         1       -1.212080e+00
        56         1        1.028767e+00
        57         1       -1.206214e+00
         1         2       -1.233502e+00
         2         2        1.905735e-01
         3         2       -5.999801e-01
         4         2        1.853139e+00
         5         2        1.693358e-03
         6         2        4.621515e-01
         7         2       -1.252255e-02
         8         2        1.154833e-01
         9         2        1.223357e-01
        10         2        6.910404e-01
        11         2       -1.375110e-01
        12         2        1.204690e-01
        13         2       -8.718507e-01
        14         2       -6.340589e-01
        15         2       -4.697032e-01
        16         2       -1.538708e+00
        17         2       -2.634931e+00
        18         2       -2.104579e-01
        19         2       -7.497370e-01
        20         2       -5.026942e-01
        21         2       -3.667070e-01
        22         2        2.030262e-01
        23         2        1.136829e+00
        24         2       -1.528098e+00
        25         2       -8.259547e-01
        26         2        8.006729e-01
        27         2        4.010438e-01
        28         2       -1.555421e+00
        29         2        6.305482e-01
        30         2       -1.106565e+00
        31         2       -1.457490e+00
        32         2        3.010633e-01
        33         2        7.356393e-01
        34         2       -6.213858e-01
        35         2       -1.161503e+00
        36         2       -2.037545e-01
        37         2        1.432599e+00
        38         2       -6.248893e-02
        39         2        7.427409e-01
        40         2        1.661988e+00
        41         2        8.058413e-01
        42         2        1.047040e-01
        43         2       -8.791085e-02
        44         2       -1.524062e+00
        45         2       -4.558682e-01
        46         2       -7.931995e-01
        47         2        1.465018e+00
        48         2       -7.146862e-01
        49         2        1.572973e+00
        50         2       -1.979820e-01
        51         2        8.303234e-01
        52         2       -1.381140e+00
        53         2        1.130700e+00
        54         2       -3.656289e-03
        55         2       -4.877156e-01
        56         2       -4.824788e-01
        57         2        1.169466e+00
         1         3        1.766785e-01
         2         3        1.911133e+00
         3         3        1.891598e+00
         4         3       -4.560269e-01
         5         3       -1.020790e+00
         6         3        7.632638e-01
         7         3       -1.559335e+00
         8         3       -1.562387e-02
         9         3        1.822742e+00
        10         3       -1.126755e+00
        11         3       -1.512238e-01
        12         3        7.023604e-02
        13         3       -9.898107e-02
        14         3       -3.135477e-01
        15         3       -1.357123e+00
        16         3       -1.036774e+00
        17         3        3.295515e-01
        18         3        1.144695e+00
        19         3       -8.073475e-01
        20         3        6.267215e-01
        21         3       -1.562811e+00
        22         3        6.171584e-01
        23         3       -5.857294e-01
        24         3        2.690835e-01
        25         3        6.273454e-01
        26         3        7.513369e-01
        27         3        1.160626e+00
        28         3       -4.164194e-01
        29         3       -1.076137e-01
        30         3        2.671523e-01
        31         3        2.482658e-01
        32         3       -2.445745e-01
        33         3       -1.298874e-01
        34         3       -2.117314e+00
        35         3        1.768353e+00
        36         3        3.490994e-01
        37         3        1.172438e+00
        38         3        6.551295e-01
        39         3       -1.222594e-01
        40         3        4.889582e-01
        41         3       -1.937190e+00
        42         3        2.715297e-01
        43         3        2.378593e-02
        44         3       -3.895486e-01
        45         3        9.409176e-01
        46         3        4.014804e-01
        47         3        7.789804e-02
        48         3       -8.602425e-01
        49         3       -3.103292e-01
        50         3       -5.199476e-01
        51         3       -2.339346e-01
        52         3       -3.000566e+00
        53         3       -8.095475e-01
        54         3        9.257400e-01
        55         3       -1.017285e+00
        56         3        5.586393e-01
        57         3        2.427307e-01
         1         4       -1.003457e+00
         2         4        1.091643e+00
         3         4       -1.247944e+00
         4         4        2.726100e-01
         5         4       -1.049844e+00
         6         4        6.127002e-01
         7         4       -2.532911e-02
         8         4       -2.660836e+00
         9         4        2.134654e+00
        10         4        1.154851e+00
        11         4       -4.763107e-01
        12         4        2.435037e+00
        13         4       -1.649658e-01
        14         4        6.178350e-01
        15         4       -6.708834e-01
        16         4       -1.892182e+00
        17         4       -2.578331e+00
        18         4        2.443114e-01
        19         4       -9.635360e-01
        20         4       -1.807035e+00
        21         4       -1.694222e+00
        22         4       -8.232745e-01
        23         4       -4.381671e-01
        24         4        9.630382e-01
        25         4       -4.103799e-02
        26         4       -1.078632e+00
        27         4        1.976761e+00
        28         4        1.188139e+00
        29         4        7.317967e-01
        30         4        9.862421e-01
        31         4       -2.811744e-01
        32         4        6.649805e-01
        33         4        9.273210e-01
        34         4        2.149046e-01
        35         4       -1.302416e+00
        36         4       -2.062603e+00
        37         4       -6.510445e-02
        38         4        1.074125e+00
        39         4       -1.537230e-01
        40         4       -9.307497e-02
        41         4        1.607290e+00
        42         4       -7.786142e-01
        43         4       -5.213650e-01
        44         4        1.672789e-01
        45         4       -1.597291e+00
        46         4       -1.553138e+00
        47         4        1.661526e+00
        48         4       -2.186138e+00
        49         4        2.758237e-01
        50         4        8.847907e-01
        51         4        1.197820e+00
        52         4        2.301900e-01
        53         4        2.730252e-01
        54         4        1.024412e+00
        55         4        7.541306e-02
        56         4        1.560787e+00
        57         4       -1.355876e+00
         1         5        1.055480e+00
         2         5       -4.701733e-01
         3         5        1.054709e+00
         4         5        4.100545e-01
         5         5        1.518494e-01
         6         5        7.890540e-01
         7         5       -9.486330e-01
         8         5       -2.361589e+00
         9         5       -2.018577e+00
        10         5       -2.514625e-01
        11         5        2.418905e-02
        12         5       -2.621451e-01
        13         5       -1.348396e+00
        14         5        1.149588e+00
        15         5       -2.973323e-01
        16         5        1.020535e+00
        17         5        8.715252e-02
        18         5        2.705232e-02
        19         5       -2.189972e-01
        20         5        1.120786e+00
        21         5       -2.052291e+00
        22         5        6.807873e-01
        23         5       -8.816539e-01
        24         5        1.337309e+00
        25         5       -3.729542e-01
        26         5       -6.223679e-01
        27         5        8.433267e-01
        28         5       -1.415555e+00
        29         5        2.999706e-01
        30         5        7.707219e-01
        31         5        2.364550e-01
        32         5       -2.983686e-01
        33         5       -1.306233e+00
        34         5       -1.425208e+00
        35         5        1.240830e-01
        36         5        1.612701e-01
        37         5       -3.850703e-01
        38         5       -3.845618e-01
        39         5       -8.452019e-01
        40         5        3.842240e-01
        41         5       -1.132333e+00
        42         5       -6.645497e-01
        43         5        7.354395e-01
        44         5       -1.379551e+00
        45         5       -6.841734e-01
        46         5        2.386715e-01
        47         5       -9.628634e-01
        48         5       -9.090413e-01
        49         5        4.849506e-01
        50         5       -3.126797e-01
        51         5        3.152915e-01
        52         5        6.534277e-01
        53         5       -6.034732e-01
        54         5       -1.206621e-01
        55         5        1.176272e+00
        56         5       -1.515482e+00
        57         5        3.289868e-01
;

param theta:=
    1       -2.026816e+00
    2       -1.508208e+00
    3        1.035491e+00
    4       -3.967630e-02
    5       -1.746171e+00
;
param X_true:=
    1        7.111158e-02
    2        1.714164e+00
    3        6.635347e-01
    4       -3.265840e+00
    5       -1.657375e+00
    6       -9.330390e-03
    7       -8.688595e-02
    8       -2.158240e+00
    9        5.346235e+00
   10        9.343903e-01
   11        9.832520e-01
   12       -3.595313e-01
   13       -3.720107e-02
   14        1.113861e-01
   15       -1.055510e+00
   16       -2.004662e+00
   17        1.652057e+00
   18        1.712894e+00
   19       -1.334024e+00
   20       -1.552129e+00
   21        1.433323e+00
   22       -6.404745e-01
   23       -4.514680e-02
   24       -1.766451e+00
   25        4.507835e-01
   26        2.407905e+00
   27       -6.958363e-01
   28        3.527599e+00
   29       -1.390308e+00
   30       -1.912397e-01
   31        1.231079e+00
   32       -1.165612e+00
   33        9.935935e-02
   34        7.560508e-01
   35        1.841070e+00
   36        1.313111e+00
   37        8.855013e-01
   38       -1.313428e+00
   39        2.751428e+00
   40       -2.415928e+00
   41       -1.878840e+00
   42       -3.466439e-01
   43       -1.645285e-01
   44       -3.031555e-01
   45       -1.575950e+00
   46       -1.767861e+00
   47        3.950165e-03
   48        1.686397e+00
   49       -2.736643e+00
   50       -1.188014e+00
   51       -5.046755e+00
   52       -2.310413e+00
   53       -5.449797e-01
   54        2.236501e+00
   55        8.188580e-02
   56        1.805386e+00
   57        4.116521e-01
;
param X:=
    1        1.011254e+00
    2        8.802567e-01
    3       -1.483747e+00
    4       -3.265840e+00
    5       -2.671332e-01
    6       -1.014942e+00
    7       -4.445325e-01
    8       -2.158240e+00
    9        5.346235e+00
   10        6.694485e-01
   11        1.060174e+00
   12        1.171986e+00
   13        4.037679e-01
   14        9.993610e-01
   15        5.726604e-01
   16       -2.004662e+00
   17        7.653908e-01
   18       -1.552777e-01
   19       -1.265531e+00
   20       -1.340344e+00
   21        1.556446e-01
   22       -2.274115e+00
   23        5.589132e-01
   24       -2.759539e-01
   25       -9.435125e-01
   26        9.304530e-02
   27        4.299557e-01
   28        3.527599e+00
   29       -1.390308e+00
   30       -1.912397e-01
   31        1.231079e+00
   32       -1.619042e+00
   33       -6.398007e-01
   34        7.560508e-01
   35       -2.234236e-01
   36        1.313111e+00
   37        2.221864e-01
   38       -8.529508e-01
   39        2.751428e+00
   40       -2.415928e+00
   41        4.891091e-01
   42       -7.556536e-01
   43        5.264778e-01
   44        5.262621e-01
   45       -1.458492e+00
   46       -1.562040e+00
   47        2.898942e-01
   48        2.232310e-01
   49       -1.030547e+00
   50       -3.774444e-01
   51       -5.046755e+00
   52        5.451507e-01
   53       -5.449797e-01
   54        8.617783e-01
   55        2.391412e+00
   56        7.512277e-01
   57        3.027208e-01
;
param outliervec:=
    1    1
    2    1
    3    1
    4    0
    5    1
    6    1
    7    1
    8    0
    9    0
   10    1
   11    1
   12    1
   13    1
   14    1
   15    1
   16    0
   17    1
   18    1
   19    1
   20    1
   21    1
   22    1
   23    1
   24    1
   25    1
   26    1
   27    1
   28    0
   29    0
   30    0
   31    0
   32    1
   33    1
   34    0
   35    1
   36    0
   37    1
   38    1
   39    0
   40    0
   41    1
   42    1
   43    1
   44    1
   45    1
   46    1
   47    1
   48    1
   49    1
   50    1
   51    0
   52    1
   53    0
   54    1
   55    1
   56    1
   57    1
; 
param greedy_time :=         2.112904e-01
;